33
1 0 2
2 0 1
2 1 2
3 0 2
3 1 1
3 2 2
4 0 2
4 1 1
4 2 1
4 3 2
5 0 2
5 1 2
5 2 1
5 3 1
5 4 2
6 0 1
6 1 1
6 2 1
6 3 2
6 4 2
6 5 2
7 0 2
7 1 2
7 2 1
7 3 1
7 4 2
7 5 2
7 6 2
8 0 2
8 1 1
8 2 2
8 3 1
8 4 2
8 5 2
8 6 2
8 7 2
9 0 1
9 1 2
9 2 1
9 3 1
9 4 1
9 5 1
9 6 2
9 7 2
9 8 1
10 0 2
10 1 1
10 2 2
10 3 1
10 4 1
10 5 2
10 6 1
10 7 1
10 8 1
10 9 1
11 0 2
11 1 2
11 2 2
11 3 2
11 4 1
11 5 1
11 6 1
11 7 2
11 8 1
11 9 2
11 10 1
12 0 2
12 1 2
12 2 1
12 3 2
12 4 1
12 5 2
12 6 1
12 7 1
12 8 2
12 9 2
12 10 2
12 11 2
13 0 1
13 1 1
13 2 2
13 3 1
13 4 1
13 5 2
13 6 1
13 7 2
13 8 2
13 9 1
13 10 2
13 11 1
13 12 1
14 0 2
14 1 1
14 2 1
14 3 1
14 4 1
14 5 1
14 6 1
14 7 2
14 8 2
14 9 2
14 10 1
14 11 1
14 12 2
14 13 2
15 0 2
15 1 1
15 2 2
15 3 2
15 4 2
15 5 1
15 6 2
15 7 2
15 8 2
15 9 1
15 10 1
15 11 2
15 12 1
15 13 2
15 14 1
16 0 2
16 1 1
16 2 1
16 3 2
16 4 1
16 5 2
16 6 1
16 7 2
16 8 1
16 9 2
16 10 2
16 11 1
16 12 2
16 13 1
16 14 1
16 15 2
17 0 2
17 1 2
17 2 1
17 3 1
17 4 1
17 5 2
17 6 2
17 7 2
17 8 1
17 9 1
17 10 1
17 11 1
17 12 1
17 13 2
17 14 1
17 15 1
17 16 2
18 0 1
18 1 1
18 2 1
18 3 2
18 4 2
18 5 2
18 6 2
18 7 1
18 8 2
18 9 1
18 10 2
18 11 1
18 12 2
18 13 1
18 14 1
18 15 2
18 16 1
18 17 2
19 0 2
19 1 2
19 2 1
19 3 1
19 4 2
19 5 2
19 6 1
19 7 2
19 8 2
19 9 1
19 10 1
19 11 1
19 12 2
19 13 2
19 14 2
19 15 1
19 16 1
19 17 1
19 18 2
20 0 1
20 1 1
20 2 2
20 3 2
20 4 2
20 5 1
20 6 1
20 7 2
20 8 1
20 9 1
20 10 1
20 11 1
20 12 1
20 13 2
20 14 1
20 15 2
20 16 1
20 17 2
20 18 1
20 19 2
21 0 2
21 1 2
21 2 1
21 3 2
21 4 1
21 5 2
21 6 2
21 7 1
21 8 2
21 9 1
21 10 1
21 11 2
21 12 2
21 13 2
21 14 1
21 15 1
21 16 2
21 17 1
21 18 1
21 19 2
21 20 1
22 0 1
22 1 2
22 2 1
22 3 2
22 4 2
22 5 2
22 6 1
22 7 1
22 8 1
22 9 1
22 10 2
22 11 1
22 12 1
22 13 2
22 14 1
22 15 2
22 16 1
22 17 1
22 18 2
22 19 2
22 20 2
22 21 1
23 0 1
23 1 1
23 2 1
23 3 2
23 4 1
23 5 2
23 6 1
23 7 2
23 8 1
23 9 1
23 10 2
23 11 1
23 12 1
23 13 2
23 14 1
23 15 1
23 16 1
23 17 1
23 18 1
23 19 1
23 20 1
23 21 1
23 22 1
24 0 1
24 1 2
24 2 1
24 3 1
24 4 1
24 5 2
24 6 1
24 7 1
24 8 2
24 9 2
24 10 2
24 11 1
24 12 2
24 13 1
24 14 1
24 15 1
24 16 2
24 17 2
24 18 1
24 19 1
24 20 2
24 21 1
24 22 1
24 23 1
25 0 1
25 1 1
25 2 2
25 3 2
25 4 2
25 5 2
25 6 1
25 7 2
25 8 1
25 9 1
25 10 1
25 11 1
25 12 2
25 13 2
25 14 2
25 15 1
25 16 2
25 17 2
25 18 1
25 19 2
25 20 1
25 21 2
25 22 2
25 23 2
25 24 2
26 0 2
26 1 1
26 2 1
26 3 1
26 4 1
26 5 1
26 6 2
26 7 2
26 8 2
26 9 2
26 10 2
26 11 2
26 12 1
26 13 2
26 14 2
26 15 1
26 16 2
26 17 2
26 18 1
26 19 2
26 20 2
26 21 1
26 22 1
26 23 2
26 24 2
26 25 2
27 0 1
27 1 2
27 2 2
27 3 1
27 4 2
27 5 1
27 6 1
27 7 2
27 8 2
27 9 2
27 10 2
27 11 1
27 12 1
27 13 1
27 14 2
27 15 1
27 16 1
27 17 1
27 18 2
27 19 1
27 20 2
27 21 2
27 22 1
27 23 2
27 24 1
27 25 2
27 26 1
28 0 1
28 1 2
28 2 2
28 3 1
28 4 1
28 5 2
28 6 2
28 7 2
28 8 1
28 9 1
28 10 2
28 11 1
28 12 1
28 13 1
28 14 2
28 15 1
28 16 2
28 17 2
28 18 2
28 19 1
28 20 1
28 21 1
28 22 2
28 23 2
28 24 1
28 25 2
28 26 1
28 27 1
29 0 1
29 1 2
29 2 2
29 3 2
29 4 1
29 5 2
29 6 2
29 7 1
29 8 1
29 9 1
29 10 1
29 11 1
29 12 2
29 13 1
29 14 1
29 15 1
29 16 2
29 17 1
29 18 2
29 19 1
29 20 1
29 21 2
29 22 1
29 23 2
29 24 1
29 25 1
29 26 2
29 27 2
29 28 2
30 0 2
30 1 2
30 2 1
30 3 2
30 4 2
30 5 2
30 6 2
30 7 2
30 8 1
30 9 1
30 10 2
30 11 1
30 12 2
30 13 1
30 14 1
30 15 2
30 16 1
30 17 1
30 18 1
30 19 1
30 20 1
30 21 2
30 22 1
30 23 1
30 24 2
30 25 2
30 26 1
30 27 2
30 28 1
30 29 1
31 0 1
31 1 1
31 2 1
31 3 1
31 4 2
31 5 1
31 6 2
31 7 1
31 8 2
31 9 2
31 10 2
31 11 2
31 12 1
31 13 1
31 14 2
31 15 1
31 16 1
31 17 1
31 18 2
31 19 1
31 20 2
31 21 2
31 22 2
31 23 1
31 24 1
31 25 1
31 26 2
31 27 2
31 28 2
31 29 2
31 30 2
32 0 2
32 1 2
32 2 2
32 3 2
32 4 1
32 5 1
32 6 2
32 7 1
32 8 2
32 9 1
32 10 2
32 11 2
32 12 2
32 13 1
32 14 1
32 15 2
32 16 2
32 17 2
32 18 1
32 19 2
32 20 2
32 21 2
32 22 1
32 23 1
32 24 1
32 25 2
32 26 2
32 27 1
32 28 1
32 29 2
32 30 1
32 31 2
